(declare-const X String)
; whenu\x2Ecom\d+Agent\stoWebupdate\.cgithisHost\x3aconnection
(assert (not (str.in_re X (re.++ (str.to_re "whenu.com\u{1b}") (re.+ (re.range "0" "9")) (str.to_re "Agent") (re.union (str.to_re " ") (str.to_re "\u{9}") (str.to_re "\u{a}") (str.to_re "\u{c}") (str.to_re "\u{d}")) (str.to_re "toWebupdate.cgithisHost:connection\u{a}")))))
; [^"]+
(assert (str.in_re X (re.++ (re.+ (re.comp (str.to_re "\u{22}"))) (str.to_re "\u{a}"))))
; ver\d+sports\w+whenu\x2Ecomwp-includes\x2Ffeed\x2Ephp\x3F
(assert (not (str.in_re X (re.++ (str.to_re "ver") (re.+ (re.range "0" "9")) (str.to_re "sports") (re.+ (re.union (re.range "0" "9") (re.range "A" "Z") (re.range "a" "z") (str.to_re "_"))) (str.to_re "whenu.com\u{13}wp-includes/feed.php?\u{a}")))))
(check-sat)

(exit)
